sat
(model 
  (define-fun A () (Array (_ FloatingPoint 8 24) (_ FloatingPoint 11 53))
    (_ as-array k!6))
  (define-fun B () (Array Int (_ FloatingPoint 11 53))
    (_ as-array k!7))
  (define-fun C () (Array (_ FloatingPoint 11 53) Int)
    (_ as-array k!8))
  (define-fun k!6 ((x!0 (_ FloatingPoint 8 24))) (_ FloatingPoint 11 53)
    (ite (= x!0 (_ +oo 8 24)) (_ -zero 11 53)
    (ite (= x!0 (_ -oo 8 24)) (_ -zero 11 53)
      (_ -zero 11 53))))
  (define-fun k!7 ((x!0 Int)) (_ FloatingPoint 11 53)
    (ite (= x!0 1) (fp #b0 #b00000000000 #x0000000000001)
    (ite (= x!0 0) (fp #b1 #b00000000001 #x0000000000002)
      (fp #b0 #b00000000000 #x0000000000001))))
  (define-fun k!8 ((x!0 (_ FloatingPoint 11 53))) Int
    (ite (= x!0 (_ +oo 11 53)) 3
    (ite (= x!0 (_ -oo 11 53)) 4
      3)))
)
(((select A (_ +oo 8 24)) (_ -zero 11 53)))
(((select B 0) (fp #b1 #b00000000001 #x0000000000002)))
(((select B 1) (fp #b0 #b00000000000 #x0000000000001)))
((C (store ((as const (Array (_ FloatingPoint 11 53) Int)) 3) (_ -oo 11 53) 4)))
sat
(model 
  (define-fun A () (Array (_ FloatingPoint 8 24) (_ FloatingPoint 11 53))
    (_ as-array k!11))
  (define-fun A!bv!9 () Array
    (_ as-array k!12))
  (define-fun B () (Array Int (_ FloatingPoint 11 53))
    (_ as-array k!13))
  (define-fun B!bv!10 () Array
    (_ as-array k!15))
  (define-fun C () (Array (_ FloatingPoint 11 53) Int)
    (_ as-array k!14))
  (define-fun k!15 ((x!0 Int)) (_ bv 64)
    (ite (= x!0 1) #x0000000000000000
    (ite (= x!0 0) #x0008000000000000
      #x0000000000000000)))
  (define-fun k!12 ((x!0 (_ bv 32))) (_ bv 64)
    (ite (= x!0 #x7f800000) #x8000000000000000
    (ite (= x!0 #xff800000) #x0000000000000000
      #x8000000000000000)))
  (define-fun k!11 ((x!0 (_ FloatingPoint 8 24))) (_ FloatingPoint 11 53)
    (ite (= x!0 (_ +oo 8 24)) (_ -zero 11 53)
    (ite (= x!0 (_ -oo 8 24)) (_ +zero 11 53)
      (_ -zero 11 53))))
  (define-fun k!13 ((x!0 Int)) (_ FloatingPoint 11 53)
    (ite (= x!0 1) (_ +zero 11 53)
    (ite (= x!0 0) (fp #b0 #b00000000000 #x8000000000000)
      (_ +zero 11 53))))
  (define-fun k!14 ((x!0 (_ FloatingPoint 11 53))) Int
    (ite (= x!0 (_ +oo 11 53)) 3
    (ite (= x!0 (_ -oo 11 53)) 4
      3)))
)
(((select A (_ +oo 8 24)) (select (store ((as const
                    (Array (_ FloatingPoint 8 24) (_ FloatingPoint 11 53)))
                 (_ -zero 11 53))
               (_ -oo 8 24)
               (_ +zero 11 53))
        (_ +oo 8 24))))
(((select B 0) (fp #b0 #b00000000000 #x8000000000000)))
(((select B 1) (_ +zero 11 53)))
((C (store ((as const (Array (_ FloatingPoint 11 53) Int)) 3) (_ -oo 11 53) 4)))
